c INFO: Problems begins with a lower case "p" followed by a space, followed by the problem type, which for CNF files is "cnf", followed by the number of variables followed by the number of clauses. 
p cnf 3  2
1 -3 0
2 3 1 0